outputs/case_11.model.txt
cannot_pay_debts = False
capital_adequacy_ratio = 100
risk_to_insured_rights = False
net_worth_ratio = 3
financial_or_business_condition_deteriorated = False
net_worth = 100
level_4_measures_executed = False
cannot_fulfill_contract = False
improvement_plan_executed = False
level_3_measures_executed = False
improvement_plan_submitted = False
violation_148_2_2 = False
not_proactively_disclose = False
violation_148_1_2 = False
violation_148_3_1 = False
internal_handling_system_established = True
capital_severely_insufficient_measures_executed = False
capital_insufficient_measures_executed = False
capital_level = 0
report_or_disclosure_false = False
not_report_to_authority_in_time = False
violation_148_2_1 = False
not_provide_explanation_doc = False
internal_control_executed = True
audit_system_executed = True
internal_control_established = True
internal_handling_system_executed = True
violation_148_3_2 = False
penalty = False
supervisory_action_required = False
capital_significantly_insufficient_measures_executed = False
violate_148_1_2 = False
audit_system_established = True
explanation_doc_false = False
explanation_doc_not_according_to_rules = False